tsp_instances/TSP50/instance105.tsp
NODE_COORD_SECTION
0 164 190
1 155 111
2 162 54
3 136 55
4 72 12
5 103 128
6 37 58
7 105 72
8 114 147
9 166 94
10 133 121
11 184 38
12 132 48
13 198 22
14 66 92
15 119 106
16 194 34
17 47 143
18 56 50
19 160 109
20 117 115
21 185 17
22 149 70
23 163 177
24 75 157
25 74 63
26 177 115
27 156 130
28 127 46
29 185 62
30 29 126
31 7 148
32 169 120
33 135 136
34 84 20
35 161 80
36 146 167
37 154 86
38 73 127
39 38 169
40 121 83
41 85 187
42 72 16
43 167 187
44 130 143
45 162 30
46 143 94
47 178 134
48 68 54
49 126 69
