tsp_instances/TSP50/instance105.opt.tour
TOUR_SECTION
1
37
45
34
11
16
21
6
9
42
25
40
32
31
18
39
15
7
19
43
5
35
49
26
8
41
50
4
13
29
46
22
14
17
12
30
3
23
36
38
47
10
20
2
28
33
27
48
24
44
-1